  9	76
 24
  0	 64	 41	 54	 65	117	140	 76	 74	130	 43	141	 55	 39	152	150	131	119	 42	 56	115	118	132	153	
 18
  0	 59	 46	 20	122	135	 96	 14	 69	 90	145	 24	 53	  4	100	129	 80	153	
 12
  0	 58	134	 38	114	 34	 12	 25	101	 88	110	153	
 16
  0	 21	 67	 97	 62	143	138	 75	 47	151	 61	137	  3	123	 79	153	
 30
  0	 70	 60	 13	 19	136	 18	 95	 45	146	 94	 89	121	 36	 50	 33	126	112	  7	 49	109	 15	 48	 83	125	 91	  6	124	 82	153	
 18
  0	  9	 16	 40	 85	  5	 92	 44	116	 27	 66	103	  2	142	120	 78	 81	153	
 18
  0	 52	 29	 23	105	 22	 99	128	 51	 11	 87	127	 68	 98	144	  1	 77	153	
 16
  0	 26	 30	102	 32	 71	  8	 84	106	108	147	 57	 72	148	133	153	
 18
  0	 28	 17	 37	 93	104	 63	113	139	 31	 10	 73	107	 86	149	 35	111	153	
